n = 100;
C = 466;
w = [439,196,848,675,503,420,775,2,844,797,924,86,160,674,60,949,494,535,669,709,840,116,88,53,759,41,526,714,636,297,201,564,69,634,332,635,178,252,454,299,24,975,930,328,989,498,386,334,541,113,166,567,637,527,272,491,622,93,82,803,669,601,378,695,528,498,644,33,331,434,32,721,131,950,430,593,627,115,151,204,286,769,478,531,692,276,567,513,976,576,399,208,649,677,533,786,272,539,183,165];
p = [2205,990,4250,3385,2525,2110,3885,20,4230,3995,4630,440,810,3380,310,4755,2480,2685,3355,3555,4210,590,450,275,3805,215,2640,3580,3190,1495,1015,2830,355,3180,1670,3185,900,1270,2280,1505,130,4885,4660,1650,4955,2500,1940,1680,2715,575,840,2845,3195,2645,1370,2465,3120,475,420,4025,3355,3015,1900,3485,2650,2500,3230,175,1665,2180,170,3615,665,4760,2160,2975,3145,585,765,1030,1440,3855,2400,2665,3470,1390,2845,2575,4890,2890,2005,1050,3255,3395,2675,3940,1370,2705,925,835];
